
******************************************************************************
This program contains Ipopt, a library for large-scale nonlinear optimization.
 Ipopt is released as open source code under the Eclipse Public License (EPL).
         For more information visit http://projects.coin-or.org/Ipopt

This version of Ipopt was compiled from source code available at
    https://github.com/IDAES/Ipopt as part of the Institute for the Design of
    Advanced Energy Systems Process Systems Engineering Framework (IDAES PSE
    Framework) Copyright (c) 2018-2019. See https://github.com/IDAES/idaes-pse.

This version of Ipopt was compiled using HSL, a collection of Fortran codes
    for large-scale scientific computation.  All technical papers, sales and
    publicity material resulting from use of the HSL codes within IPOPT must
    contain the following acknowledgement:
        HSL, a collection of Fortran codes for large-scale scientific
        computation. See http://www.hsl.rl.ac.uk.
******************************************************************************

This is Ipopt version 3.13.2, running with linear solver ma27.

Number of nonzeros in equality constraint Jacobian...:      958
Number of nonzeros in inequality constraint Jacobian.:        0
Number of nonzeros in Lagrangian Hessian.............:      832

Total number of variables............................:      416
                     variables with only lower bounds:      128
                variables with lower and upper bounds:      224
                     variables with only upper bounds:        0
Total number of equality constraints.................:      415
Total number of inequality constraints...............:        0
        inequality constraints with only lower bounds:        0
   inequality constraints with lower and upper bounds:        0
        inequality constraints with only upper bounds:        0

iter    objective    inf_pr   inf_du lg(mu)  ||d||  lg(rg) alpha_du alpha_pr  ls
   0  0.0000000e+00 1.07e+00 5.23e-13  -1.0 0.00e+00    -  0.00e+00 0.00e+00   0
   1  1.0329660e+01 1.05e+00 5.01e+05  -1.0 1.29e+07    -  2.26e-02 1.53e-02h  3
   2  2.6093792e+01 1.04e+00 6.22e+05  -1.0 1.85e+07    -  2.06e-02 7.74e-03h  4
   3  3.2705818e+01 1.04e+00 6.30e+05  -1.0 2.38e+07    -  1.97e-02 2.13e-03h  6
   4  3.5798557e+01 1.04e+00 6.31e+05  -1.0 3.03e+07    -  1.65e-02 8.03e-04h  7
   5  7.1346899e+02 9.88e-01 8.49e+06  -1.0 3.16e+07    -  1.89e-02 4.89e-02h  1
   6  7.3001003e+02 9.87e-01 8.49e+06  -1.0 4.31e+07    -  2.84e-02 4.41e-04h  1
   7r 7.3001003e+02 9.87e-01 9.99e+02  -0.0 0.00e+00    -  0.00e+00 2.87e-07R  5
   8r 7.3001177e+02 1.02e+00 9.90e+02  -0.0 5.98e+02    -  2.97e-03 8.74e-03f  1
   9r 7.3001340e+02 1.00e+00 9.82e+02  -0.0 6.17e+02    -  1.37e-02 8.56e-03f  1
iter    objective    inf_pr   inf_du lg(mu)  ||d||  lg(rg) alpha_du alpha_pr  ls
  10r 7.3001340e+02 9.70e-01 9.61e+02  -0.0 1.21e+00   2.0 2.68e-01 2.78e-02f  1
  11r 7.3001340e+02 8.66e-01 8.60e+02  -0.0 1.05e+00   1.5 1.14e-01 1.05e-01f  1
  12r 7.3001340e+02 8.66e-01 9.99e+02  -0.1 0.00e+00    -  0.00e+00 3.34e-07R  6
  13r 7.3001318e+02 7.69e-01 9.97e+02  -0.1 8.08e+03    -  2.18e-02 1.39e-03f  1
  14  7.2986603e+02 1.01e+00 7.46e+02  -1.0 8.68e+07    -  3.40e-02 1.78e-04f  2
  15  7.2847714e+02 1.01e+00 2.67e+03  -1.0 7.32e+07    -  4.01e-02 1.15e-03f  4
  16  7.2652911e+02 1.01e+00 7.47e+03  -1.0 7.07e+07    -  4.20e-02 1.13e-03f  4
  17  7.2562711e+02 3.12e+00 2.28e+04  -1.0 7.13e+07    -  4.00e-02 1.02e-03f  4
  18  7.2561176e+02 3.12e+00 6.96e+04  -1.0 7.59e+07    -  3.99e-02 1.10e-04h  7
  19  7.2479769e+02 3.12e+00 2.53e+05  -1.0 7.18e+07    -  4.00e-02 8.65e-04f  4
iter    objective    inf_pr   inf_du lg(mu)  ||d||  lg(rg) alpha_du alpha_pr  ls
  20  7.2442858e+02 3.12e+00 6.25e+05  -1.0 7.20e+07    -  3.72e-02 7.49e-04f  4
  21  7.2439200e+02 3.12e+00 2.25e+06  -1.0 7.21e+07    -  3.72e-02 1.62e-04f  6
  22  7.2438283e+02 3.12e+00 1.29e+07  -1.0 7.21e+07    -  3.72e-02 7.85e-05h  7
  23r 7.2438283e+02 3.12e+00 1.00e+03   0.5 0.00e+00    -  0.00e+00 4.38e-07R 12
  24r 7.2438276e+02 7.65e-01 9.95e+02   0.5 3.98e+03    -  1.65e-02 1.30e-03f  1
  25r 7.2438276e+02 7.65e-01 9.99e+02  -0.1 0.00e+00    -  0.00e+00 3.19e-07R  4
  26r 7.2438274e+02 7.68e-01 9.98e+02  -0.1 3.38e+03    -  2.95e-02 1.28e-03f  1
  27r 7.2438289e+02 8.01e-01 9.85e+02  -0.1 8.76e+02    -  1.29e-03 1.24e-02f  1
  28r 7.2438278e+02 8.08e-01 9.79e+02  -0.1 2.29e+03    -  2.25e-02 6.19e-03f  1
  29r 7.2438260e+02 8.27e-01 9.59e+02  -0.1 8.64e+02    -  1.17e-02 2.07e-02f  1
iter    objective    inf_pr   inf_du lg(mu)  ||d||  lg(rg) alpha_du alpha_pr  ls
  30r 7.2438186e+02 8.35e-01 9.25e+02  -0.1 1.35e+03    -  3.67e-02 3.55e-02f  1
  31r 7.2438113e+02 8.41e-01 9.00e+02  -0.1 1.05e+03    -  3.57e-02 2.69e-02f  1
  32r 7.2437998e+02 8.49e-01 8.81e+02  -0.1 1.13e+03    -  3.24e-02 4.56e-02f  1
  33r 7.2437962e+02 8.50e-01 8.94e+02  -0.1 1.25e+03    -  1.02e-03 1.55e-02f  1
  34r 7.2437957e+02 8.50e-01 8.56e+02  -0.1 7.66e+02    -  2.47e-02 2.52e-03f  1
  35r 7.2437926e+02 8.52e-01 8.63e+02  -0.1 1.28e+03    -  1.35e-03 2.03e-02f  1
  36r 7.2437924e+02 8.52e-01 8.55e+02  -0.1 8.15e+02    -  7.34e-03 2.62e-03f  1
  37r 7.2437917e+02 8.53e-01 8.52e+02  -0.1 1.46e+03    -  4.97e-03 1.24e-02f  1
  38r 7.2437916e+02 8.53e-01 8.10e+02  -0.1 1.26e+03    -  1.49e-01 4.63e-03f  1
  39r 7.2437916e+02 8.58e-01 7.26e+02  -0.1 5.73e-01   2.0 1.01e-01 3.42e-01f  1
iter    objective    inf_pr   inf_du lg(mu)  ||d||  lg(rg) alpha_du alpha_pr  ls
  40r 7.2437916e+02 8.55e-01 5.46e+02  -0.1 1.72e+00   2.4 2.05e-01 7.22e-02f  1
  41r 7.2437916e+02 8.51e-01 6.93e+02  -0.1 2.27e-01   2.9 8.24e-01 2.35e-01f  1
  42r 7.2437916e+02 8.44e-01 6.01e+02  -0.1 5.22e-01   2.4 4.05e-02 1.09e-01f  1
  43r 7.2437916e+02 8.34e-01 9.30e+02  -0.1 1.32e-01   2.8 8.77e-01 3.55e-01f  1
  44r 7.2437916e+02 8.17e-01 1.18e+02  -0.1 4.64e-02   3.2 9.90e-01 9.13e-01f  1
  45r 7.2437916e+02 8.07e-01 1.63e+02  -0.1 2.85e-01   2.7 4.60e-01 3.87e-01f  1
  46r 7.2437916e+02 7.99e-01 1.20e+03  -0.1 9.50e-02   3.2 4.62e-01 1.00e+00f  1
  47r 7.2437916e+02 7.97e-01 1.17e+03  -0.1 5.88e-01   2.7 3.45e-01 9.52e-02f  1
  48r 7.2437916e+02 7.83e-01 5.97e+01  -0.1 4.48e-02   3.1 9.14e-01 1.00e+00f  1
  49r 7.2437916e+02 7.72e-01 9.09e+01  -0.1 4.34e-01   2.6 2.24e-01 2.34e-01f  1
iter    objective    inf_pr   inf_du lg(mu)  ||d||  lg(rg) alpha_du alpha_pr  ls
  50r 7.2437916e+02 7.65e-01 3.70e+03  -0.1 1.18e-01   3.1 2.87e-01 1.00e+00f  1
  51r 7.2437916e+02 7.59e-01 1.64e+02  -0.1 5.19e-02   3.5 9.91e-01 1.00e+00f  1
  52r 7.2437916e+02 7.44e-01 2.06e+02  -0.1 2.09e-01   3.0 6.41e-01 7.44e-01f  1
  53r 7.2437916e+02 7.43e-01 5.46e+02  -0.1 6.59e-02   3.4 3.76e-01 2.42e-01f  1
  54r 7.2437916e+02 7.40e-01 4.88e+02  -0.1 3.51e-01   3.0 9.81e-02 8.45e-02f  1
  55r 7.2437916e+02 7.33e-01 4.55e+02  -0.1 3.26e-01   2.5 4.52e-02 4.94e-02f  1
  56r 7.2437916e+02 7.32e-01 1.72e+03  -0.1 1.83e-01   2.9 6.57e-01 4.98e-02f  1
  57r 7.2437916e+02 7.23e-01 8.46e+01  -0.1 3.73e-02   3.3 1.00e+00 1.00e+00f  1
  58r 7.2437916e+02 7.08e-01 1.23e+02  -0.1 7.95e-02   2.9 6.16e-01 7.33e-01f  1
  59r 7.2437916e+02 7.02e-01 6.99e+01  -0.1 3.54e-02   3.3 1.00e+00 1.00e+00f  1
iter    objective    inf_pr   inf_du lg(mu)  ||d||  lg(rg) alpha_du alpha_pr  ls
  60r 7.2437916e+02 6.90e-01 1.09e+02  -0.1 2.09e-01   2.8 5.38e-01 5.80e-01f  1
  61r 7.2437916e+02 6.87e-01 1.41e+02  -0.1 7.00e-02   3.2 1.00e+00 4.27e-01f  1
  62  7.3439205e+02 6.87e-01 7.97e+02  -1.0 3.21e+07    -  3.74e-02 4.71e-04h  1
  63r 7.3439205e+02 6.87e-01 9.99e+02  -0.2 0.00e+00    -  0.00e+00 3.07e-07R  5
  64r 7.3439436e+02 6.89e-01 9.86e+02  -0.2 3.89e+02    -  3.03e-02 1.33e-02f  1
  65r 7.3439423e+02 1.79e+00 9.86e+02  -0.2 1.21e+04    -  7.35e-05 1.22e-04f  1
  66r 7.3439624e+02 6.95e-01 9.71e+02  -0.2 2.79e+02    -  1.03e-01 1.55e-02f  1
  67r 7.3439624e+02 6.88e-01 7.38e+02  -0.2 4.65e-01   2.0 1.76e-01 2.48e-01f  1
  68r 7.3439624e+02 6.83e-01 5.95e+02  -0.2 4.98e-01   2.4 4.90e-01 2.26e-01f  1
  69r 7.3439624e+02 6.77e-01 3.39e+02  -0.2 1.89e-01   2.9 9.90e-01 5.47e-01f  1
iter    objective    inf_pr   inf_du lg(mu)  ||d||  lg(rg) alpha_du alpha_pr  ls
  70r 7.3439624e+02 6.73e-01 3.32e+02  -0.2 4.34e+00   2.4 2.84e-02 3.63e-02f  1
  71r 7.3439624e+02 6.71e-01 2.33e+02  -0.2 8.69e-02   2.8 9.90e-01 1.41e-01f  1
  72r 7.3439624e+02 6.41e-01 2.26e+02  -0.2 1.28e+00   2.3 8.75e-02 5.40e-02f  1
  73r 7.3439624e+02 5.80e-01 4.89e+01  -0.2 6.56e-02   2.7 9.90e-01 9.32e-01f  1
  74  7.3610733e+02 5.80e-01 1.28e+02  -1.0 3.14e+07    -  3.17e-02 7.26e-05h  1
  75r 7.3610733e+02 5.80e-01 9.99e+02  -0.2 0.00e+00    -  0.00e+00 2.53e-07R  5
  76r 7.3611665e+02 5.09e-01 9.46e+02  -0.2 4.30e+02    -  5.11e-02 5.30e-02f  1
  77  7.3683119e+02 5.09e-01 1.71e+05  -1.0 6.49e+07    -  4.85e-02 5.49e-05h  1
  78r 7.3683119e+02 5.09e-01 1.00e+03  -0.3 0.00e+00    -  0.00e+00 2.89e-07R 16
  79r 7.3683496e+02 6.74e-01 9.83e+02  -0.3 1.62e+03    -  1.66e-02 2.34e-02f  1
iter    objective    inf_pr   inf_du lg(mu)  ||d||  lg(rg) alpha_du alpha_pr  ls
  80r 7.3683550e+02 6.75e-01 9.71e+02  -0.3 1.83e+03    -  4.75e-02 4.45e-03f  1
  81r 7.3683550e+02 6.72e-01 8.55e+02  -0.3 2.50e+00   0.0 9.81e-01 1.20e-01f  1
  82r 7.3683550e+02 6.65e-01 1.11e+03  -0.3 7.77e+01   0.4 6.75e-03 1.49e-01f  1
  83r 7.3683549e+02 6.65e-01 1.10e+03  -0.3 2.41e+03    -  6.10e-02 2.65e-03f  1
  84r 7.3683513e+02 6.63e-01 1.08e+03  -0.3 6.91e+02    -  1.58e-02 2.49e-02f  1
  85r 7.3683442e+02 6.61e-01 1.05e+03  -0.3 2.88e+03    -  4.40e-02 2.76e-02f  1
  86r 7.3683442e+02 6.44e-01 5.68e+02  -0.3 2.46e+01  -0.1 5.81e-01 4.59e-01f  1
  87r 7.3683286e+02 6.43e-01 5.61e+02  -0.3 3.73e+02    -  1.00e-02 1.35e-02f  1
  88r 7.3682957e+02 6.41e-01 5.44e+02  -0.3 3.95e+02    -  9.61e-02 3.43e-02f  1
  89r 7.3682652e+02 6.37e-01 6.94e+02  -0.3 1.30e+03    -  1.57e-01 7.31e-02f  1
iter    objective    inf_pr   inf_du lg(mu)  ||d||  lg(rg) alpha_du alpha_pr  ls
  90r 7.3682362e+02 6.33e-01 8.88e+02  -0.3 1.07e+03    -  2.14e-01 7.36e-02f  1
  91r 7.3681915e+02 6.31e-01 7.86e+02  -0.3 1.49e+03    -  1.17e-01 1.35e-01f  1
  92r 7.3681650e+02 6.30e-01 7.34e+02  -0.3 1.43e+03    -  5.01e-02 5.44e-02f  1
  93r 7.3681650e+02 6.29e-01 6.96e+02  -0.3 1.91e+02  -0.5 7.13e-03 6.37e-02f  1
  94r 7.3681631e+02 6.29e-01 7.17e+02  -0.3 8.64e+02    -  1.84e-01 8.66e-03h  1
  95r 7.3681197e+02 6.27e-01 8.11e+02  -0.3 5.32e+02    -  3.69e-01 1.53e-01f  1
  96r 7.3679008e+02 6.17e-01 2.24e+03  -0.3 6.46e+02    -  6.74e-02 8.12e-01f  1
  97r 7.3679008e+02 6.16e-01 2.15e+03  -0.3 7.33e+00  -1.0 6.75e-03 4.17e-02f  1
  98r 7.3678690e+02 6.15e-01 1.81e+03  -0.3 4.19e+02    -  1.11e-01 1.55e-01f  1
  99r 7.3678690e+02 6.14e-01 8.58e+02  -0.3 2.63e-02   3.0 4.58e-01 5.26e-01f  1
iter    objective    inf_pr   inf_du lg(mu)  ||d||  lg(rg) alpha_du alpha_pr  ls
 100r 7.3678578e+02 6.14e-01 8.01e+02  -0.3 3.46e+02    -  5.35e-02 6.69e-02f  1
 101r 7.3678545e+02 6.13e-01 1.43e+03  -0.3 3.26e+02    -  9.90e-01 1.06e-01f  1
 102r 7.3678202e+02 6.13e-01 1.20e+03  -0.3 1.42e+03    -  2.53e-02 1.75e-01f  1
 103r 7.3678202e+02 6.12e-01 9.20e+01  -0.3 2.56e-01   2.6 9.91e-01 1.00e+00f  1
 104r 7.3678202e+02 6.12e-01 1.71e+01  -0.3 1.43e-01   2.1 1.00e+00 1.00e+00f  1
 105r 7.3678202e+02 6.13e-01 1.72e+01  -1.0 4.29e-01   1.6 1.00e+00 9.51e-01f  1
 106r 7.3678202e+02 6.13e-01 1.78e+01  -1.0 1.33e+00   1.1 1.00e+00 1.00e+00f  1
 107r 7.3678202e+02 6.13e-01 6.47e+01  -1.0 4.45e+00   0.6 6.94e-01 1.00e+00f  1
 108r 7.3678202e+02 6.13e-01 4.35e+01  -1.0 1.91e+01   0.2 3.87e-01 2.28e-01f  1
 109r 7.3678165e+02 6.13e-01 3.87e+01  -1.0 6.07e+02    -  3.59e-02 2.20e-03f  1
iter    objective    inf_pr   inf_du lg(mu)  ||d||  lg(rg) alpha_du alpha_pr  ls
 110r 7.3678165e+02 6.13e-01 8.03e+02  -1.0 1.66e-01  -0.3 1.00e+00 5.76e-02f  1
 111r 7.3676948e+02 1.26e+00 7.48e+02  -1.0 6.47e+02    -  3.30e-02 6.92e-02f  1
 112r 7.3676889e+02 1.26e+00 7.44e+02  -1.0 2.56e+03    -  7.99e-02 4.30e-03f  1
 113r 7.3676889e+02 1.25e+00 7.39e+02  -1.0 2.47e+03  -0.8 4.20e-05 7.20e-03f  1
 114r 7.3676889e+02 1.24e+00 7.39e+02  -1.0 3.99e+01  -0.4 6.59e-01 3.25e-03f  1
 115r 7.3676859e+02 1.24e+00 8.63e+02  -1.0 4.40e+02    -  1.00e+00 3.75e-03f  1
 116r 7.3669179e+02 6.13e-01 1.35e+02  -1.0 3.44e+02    -  1.00e+00 1.00e+00f  1
 117r 7.3669068e+02 6.13e-01 1.26e-03  -1.0 5.54e+01    -  1.00e+00 1.00e+00f  1
 118r 7.3669059e+02 6.13e-01 1.64e+01  -3.8 1.33e+01    -  9.86e-01 8.28e-01f  1
 119r 7.3399173e+02 6.13e-01 1.50e+02  -3.8 1.53e+04    -  9.30e-01 6.87e-01f  1
iter    objective    inf_pr   inf_du lg(mu)  ||d||  lg(rg) alpha_du alpha_pr  ls
 120r 7.3277999e+02 6.13e-01 1.93e-02  -3.8 4.78e+03    -  1.00e+00 1.00e+00f  1
 121r 7.3278026e+02 6.13e-01 3.17e-06  -3.8 8.27e+00    -  1.00e+00 1.00e+00f  1
 122r 7.3278040e+02 6.13e-01 1.51e+00  -5.7 1.29e+00    -  9.42e-01 9.97e-01f  1
 123r 7.3091475e+02 6.13e-01 1.79e+01  -5.7 4.28e+05    -  1.24e-01 5.01e-02f  1
 124r 7.3091475e+02 6.13e-01 1.27e+02  -5.7 1.53e-01  -0.8 1.00e+00 2.00e-05h  1
 125r 7.2988045e+02 6.13e-01 6.95e+02  -5.7 3.53e+05    -  1.00e+00 3.11e-02f  1
 126r 7.2988006e+02 6.13e-01 1.40e+03  -5.7 1.29e+05    -  1.00e+00 1.28e-05f  1
 127r 7.1586454e+02 6.13e-01 7.21e+02  -5.7 1.29e+05    -  1.00e+00 4.84e-01f  1
 128r 7.1586449e+02 6.13e-01 1.05e+03  -5.7 6.75e+04    -  1.00e+00 3.86e-06h  1
 129r 7.1562617e+02 6.13e-01 5.22e+02  -5.7 6.75e+04    -  1.00e+00 1.61e-02f  1
iter    objective    inf_pr   inf_du lg(mu)  ||d||  lg(rg) alpha_du alpha_pr  ls
 130r 7.1455900e+02 6.13e-01 4.87e+02  -5.7 6.64e+04    -  1.00e+00 7.31e-02f  1
 131r 7.0287148e+02 6.13e-01 4.88e+01  -5.7 6.16e+04    -  1.00e+00 8.64e-01f  1
 132r 7.0287140e+02 6.13e-01 7.44e+01  -5.7 8.73e+03    -  1.00e+00 4.45e-05h  1
 133r 7.0109111e+02 6.13e-01 4.26e-02  -5.7 8.73e+03    -  1.00e+00 1.00e+00f  1
 134r 7.0109129e+02 6.13e-01 1.25e-06  -5.7 5.88e+01    -  1.00e+00 1.00e+00h  1
 135r 7.0109129e+02 6.13e-01 2.05e-01  -8.6 7.00e-02    -  9.76e-01 9.96e-01f  1
 136r 7.0109129e+02 6.13e-01 5.61e+02  -8.6 5.63e-03  -1.3 1.00e+00 1.23e-01f  1
 137r 7.0109129e+02 6.13e-01 2.74e-04  -8.6 1.69e-02  -1.8 1.00e+00 1.00e+00f  1
 138r 7.0109128e+02 6.13e-01 2.74e-04  -8.6 5.06e-02  -2.3 1.00e+00 1.00e+00f  1
 139r 7.0109127e+02 6.13e-01 2.74e-04  -8.6 1.52e-01  -2.7 1.00e+00 1.00e+00f  1
iter    objective    inf_pr   inf_du lg(mu)  ||d||  lg(rg) alpha_du alpha_pr  ls
 140r 7.0109122e+02 6.13e-01 2.74e-04  -8.6 4.56e-01  -3.2 1.00e+00 1.00e+00f  1
 141r 7.0109108e+02 6.13e-01 2.74e-04  -8.6 1.37e+00  -3.7 1.00e+00 1.00e+00f  1
 142r 7.0109065e+02 6.13e-01 2.74e-04  -8.6 4.10e+00  -4.2 1.00e+00 1.00e+00f  1
 143r 7.0108936e+02 6.13e-01 2.74e-04  -8.6 1.23e+01  -4.7 1.00e+00 1.00e+00f  1
 144r 7.0108550e+02 6.13e-01 2.74e-04  -8.6 3.69e+01  -5.1 1.00e+00 1.00e+00f  1
 145r 7.0107393e+02 6.13e-01 2.74e-04  -8.6 1.11e+02  -5.6 1.00e+00 1.00e+00f  1
 146r 7.0103925e+02 6.13e-01 2.74e-04  -8.6 3.32e+02  -6.1 1.00e+00 1.00e+00f  1
 147r 7.0093550e+02 6.13e-01 2.73e-04  -8.6 9.91e+02  -6.6 1.00e+00 1.00e+00f  1
 148r 7.0062693e+02 6.13e-01 1.30e-03  -8.6 2.94e+03  -7.0 1.00e+00 1.00e+00f  1
 149r 6.9972443e+02 6.13e-01 1.18e-02  -8.6 8.53e+03  -7.5 1.00e+00 1.00e+00f  1
iter    objective    inf_pr   inf_du lg(mu)  ||d||  lg(rg) alpha_du alpha_pr  ls
 150r 6.9720748e+02 6.13e-01 1.11e-01  -8.6 2.33e+04  -8.0 1.00e+00 1.00e+00f  1
 151r 6.9518384e+02 6.13e-01 8.71e+00  -8.6 7.48e+04  -8.5 1.00e+00 2.99e-01f  1
 152r 6.9518384e+02 6.13e-01 8.71e+00  -8.6 3.94e+05  -8.9 0.00e+00 2.33e-14R 18
 153r 6.9518384e+02 6.13e-01 6.99e+02  -8.6 9.29e+04  -8.5 1.00e+00 1.41e-11f  9
 154r 6.9503018e+02 6.13e-01 9.00e+02  -8.6 5.02e+05  -9.0 1.00e+00 6.76e-03f  1
 155r 6.9348762e+02 6.13e-01 1.29e+03  -8.6 4.31e+05  -9.5 1.00e+00 2.44e-02f  1
 156r 6.5308858e+02 6.13e-01 1.36e+03  -8.6 4.89e+06 -10.0 3.72e-06 4.35e-02f  1
 157r 6.5308858e+02 6.13e-01 1.36e+03  -8.6 6.22e+05  -9.5 0.00e+00 9.85e-14R 15
 158r 6.5308858e+02 6.13e-01 1.30e+03  -8.6 1.65e+05  -9.1 2.42e-01 1.56e-11f  9
 159r 6.5308858e+02 6.13e-01 1.39e+03  -8.6 4.10e-02   2.7 2.14e-04 8.44e-03f  1
iter    objective    inf_pr   inf_du lg(mu)  ||d||  lg(rg) alpha_du alpha_pr  ls
 160r 6.5308858e+02 6.13e-01 1.23e+03  -8.6 1.47e-02   3.2 5.28e-02 4.61e-02f  1
 161r 6.5308858e+02 6.13e-01 1.95e+03  -8.6 4.71e-02   2.7 1.02e-02 7.36e-02f  1
 162r 6.5308858e+02 6.13e-01 3.33e+03  -8.6 1.71e-02   3.1 2.00e-03 1.16e-01f  1
 163r 6.5308858e+02 6.13e-01 4.86e+03  -8.6 5.87e-02   2.6 3.58e-03 1.69e-01f  1
 164r 6.5308858e+02 6.13e-01 6.66e+03  -8.6 1.95e-02   3.1 7.16e-04 1.86e-01f  1
 165r 6.5308858e+02 6.13e-01 7.13e+03  -8.6 7.82e-02   2.6 1.86e-02 1.16e-01f  1
 166r 6.5308858e+02 6.13e-01 8.25e+03  -8.6 2.19e-02   3.0 3.85e-03 1.88e-01f  1
 167r 6.5308858e+02 6.13e-01 7.64e+03  -8.6 1.05e-01   2.5 1.04e-02 1.73e-01f  1
 168r 6.5308858e+02 6.13e-01 7.55e+03  -8.6 2.90e-02   3.0 8.45e-03 1.80e-01f  1
 169r 6.5308858e+02 6.13e-01 7.66e+03  -8.6 1.47e-01   2.5 1.80e-02 2.53e-01f  1
iter    objective    inf_pr   inf_du lg(mu)  ||d||  lg(rg) alpha_du alpha_pr  ls
 170r 6.5308858e+02 6.13e-01 7.66e+03  -8.6 3.21e-01   2.0 0.00e+00 1.94e-14R 15
 171r 6.5308858e+02 6.13e-01 7.44e+03  -8.6 7.85e-02   2.4 3.73e-02 5.07e-12f  9
 172r 6.5308858e+02 6.13e-01 7.16e+03  -8.6 3.88e-02   2.0 7.83e-02 3.72e-02f  1
 173r 6.5308858e+02 6.13e-01 6.44e+03  -8.6 9.38e-02   1.5 5.61e-02 1.01e-01f  1
 174r 6.5308858e+02 6.13e-01 6.03e+03  -8.6 9.91e-02   1.0 1.87e-01 9.71e-02f  1
 175r 6.5308858e+02 6.13e-01 5.66e+03  -8.6 1.74e-01   0.5 1.38e-01 5.25e-02f  1
 176r 6.5308858e+02 6.13e-01 5.46e+03  -8.6 5.17e-01   0.1 3.12e-02 3.93e-02f  1
 177r 6.5308858e+02 6.13e-01 5.27e+03  -8.6 1.50e+00  -0.4 1.05e-01 1.46e-03f  1
 178r 6.5308858e+02 6.13e-01 5.13e+03  -8.6 4.43e+00  -0.9 1.18e-01 1.38e-04f  1
 179r 6.5308858e+02 6.13e-01 5.13e+03  -8.6 1.38e+01  -1.4 3.87e-02 3.95e-04f  1
iter    objective    inf_pr   inf_du lg(mu)  ||d||  lg(rg) alpha_du alpha_pr  ls
 180r 6.5308858e+02 6.13e-01 4.91e+03  -8.6 3.74e-01  -1.9 6.11e-03 4.41e-02f  1
 181r 6.5308858e+02 6.13e-01 4.86e+03  -8.6 9.61e-01  -2.3 1.90e-01 9.27e-03f  1
 182r 6.5308858e+02 6.13e-01 3.71e+03  -8.6 1.92e+00  -2.8 1.46e-01 2.36e-01f  1
 183r 6.5308858e+02 6.13e-01 2.35e+03  -8.6 5.64e+00  -3.3 3.41e-02 3.68e-01f  1
 184r 6.5308859e+02 6.13e-01 2.34e+03  -8.6 4.12e+01  -3.8 2.11e-02 3.54e-03f  1
 185r 6.5308859e+02 6.13e-01 2.11e+03  -8.6 7.94e+01  -4.2 2.45e-02 9.83e-02f  1
 186r 6.5308861e+02 6.13e-01 3.68e+03  -8.6 6.03e+01  -4.7 5.20e-01 7.14e-02f  1
 187r 6.5308863e+02 6.13e-01 3.56e+03  -8.6 4.40e+02  -5.2 4.38e-02 3.16e-02f  1
 188r 6.5308879e+02 6.13e-01 3.26e+03  -8.6 4.02e+02  -5.7 3.75e-01 8.76e-02f  1
 189r 6.5308902e+02 6.13e-01 3.11e+03  -8.6 8.64e+02  -6.2 3.78e-01 4.50e-02f  1
iter    objective    inf_pr   inf_du lg(mu)  ||d||  lg(rg) alpha_du alpha_pr  ls
 190r 6.5308922e+02 6.13e-01 3.07e+03  -8.6 2.58e+03  -6.6 4.99e-02 1.42e-02f  1
 191r 6.5308985e+02 6.13e-01 3.02e+03  -8.6 5.31e+03  -7.1 6.46e-02 1.70e-02f  1
 192r 6.5309180e+02 6.13e-01 2.96e+03  -8.6 1.63e+04  -7.6 9.75e-03 1.78e-02f  1
 193r 6.5309308e+02 6.13e-01 2.95e+03  -8.6 2.47e+04  -8.1 1.00e+00 4.00e-03f  1
 194r 6.5309326e+02 6.13e-01 2.95e+03  -8.6 6.08e+04  -8.5 1.48e-02 1.58e-04f  1
 195r 6.5309586e+02 6.13e-01 2.95e+03  -8.6 1.88e+05  -9.0 1.34e-02 5.52e-04f  1
 196r 6.5311599e+02 6.13e-01 2.95e+03  -8.6 7.13e+05  -9.5 1.13e-01 7.55e-04f  1
 197r 6.5311599e+02 6.13e-01 2.95e+03  -8.6 1.51e+05  -9.1 3.08e-01 3.98e-12h  9
 198r 6.5307823e+02 6.13e-01 2.94e+03  -8.6 6.62e+05  -9.5 1.00e+00 1.35e-03f  1
 199r 6.5298391e+02 6.13e-01 2.92e+03  -8.6 1.73e+05  -9.1 2.52e-01 7.57e-03f  1
iter    objective    inf_pr   inf_du lg(mu)  ||d||  lg(rg) alpha_du alpha_pr  ls
 200r 6.5296885e+02 6.13e-01 2.54e+03  -8.6 8.23e+05  -9.6 4.95e-01 3.46e-04f  1
 201r 6.5296885e+02 6.13e-01 2.19e+03  -8.6 1.53e-02   0.3 1.39e-01 1.37e-01f  1
 202r 6.5296885e+02 6.13e-01 2.17e+03  -8.6 1.49e-02  -0.2 3.48e-02 1.38e-01f  1
 203r 6.5296885e+02 6.13e-01 2.31e+03  -8.6 2.35e-02  -0.7 1.67e-02 2.52e-01f  1
 204r 6.5296885e+02 6.13e-01 2.48e+03  -8.6 7.62e-02  -1.2 1.20e-01 5.50e-01f  1
 205r 6.5296885e+02 6.13e-01 5.02e+03  -8.6 4.77e-01  -1.7 8.20e-04 3.73e-01f  1
 206r 6.5296885e+02 6.13e-01 4.95e+03  -8.6 8.09e-01  -2.1 9.87e-03 6.69e-01f  1
 207r 6.5296885e+02 6.13e-01 2.59e+03  -8.6 7.25e-01  -2.6 1.12e-01 7.37e-01f  1
 208r 6.5296886e+02 6.13e-01 6.23e+02  -8.6 1.22e+00  -3.1 4.88e-01 8.47e-01f  1
 209r 6.5296887e+02 6.13e-01 4.21e+02  -8.6 3.65e+00  -3.6 3.24e-01 9.61e-01f  1
iter    objective    inf_pr   inf_du lg(mu)  ||d||  lg(rg) alpha_du alpha_pr  ls
 210r 6.5296887e+02 6.13e-01 1.93e+02  -8.6 1.09e+01  -4.0 6.27e-01 3.54e-02f  1
 211r 6.5296891e+02 6.13e-01 2.18e+02  -8.6 2.03e+01  -4.5 4.56e-01 2.95e-01f  1
 212r 6.5296895e+02 6.13e-01 6.73e+02  -8.6 6.09e+01  -5.0 5.44e-01 1.04e-01f  1
 213r 6.5296909e+02 6.13e-01 1.22e+03  -8.6 1.21e+02  -5.5 6.74e-01 1.59e-01f  1
 214r 6.5296928e+02 6.13e-01 1.33e+03  -8.6 3.47e+02  -6.0 9.42e-01 7.08e-02f  1
 215r 6.5296933e+02 6.13e-01 1.17e+03  -8.6 7.87e+02  -6.4 1.00e+00 7.72e-03f  1
 216r 6.5297013e+02 6.13e-01 1.49e+03  -8.6 1.76e+03  -6.9 9.54e-01 3.97e-02f  1
 217r 6.5297039e+02 6.13e-01 1.27e+03  -8.6 5.18e+03  -7.4 1.00e+00 4.38e-03f  1
 218r 6.5297847e+02 6.13e-01 1.65e+03  -8.6 1.38e+04  -7.9 1.00e+00 4.21e-02f  1
 219r 6.5273820e+02 6.13e-01 1.09e+03  -8.6 3.90e+04  -8.3 1.00e+00 9.24e-02f  1
iter    objective    inf_pr   inf_du lg(mu)  ||d||  lg(rg) alpha_du alpha_pr  ls
 220r 6.5117468e+02 6.13e-01 8.56e+02  -8.6 9.90e+04  -8.8 1.00e+00 2.18e-01f  1
 221r 6.5117468e+02 6.13e-01 8.56e+02  -8.6 2.98e+05  -9.3 0.00e+00 7.41e-15R 22
 222r 6.5117468e+02 6.13e-01 8.89e+02  -8.6 2.65e+06  -9.8 1.00e+00 1.53e-08f  1
 223r 6.5098711e+02 6.13e-01 8.91e+02  -8.6 3.50e+05  -9.3 1.00e+00 9.91e-03f  1
 224r 6.5089008e+02 6.13e-01 7.71e+02  -8.6 4.85e+06  -9.8 1.00e+00 1.35e-03f  1
 225r 6.4314874e+02 6.13e-01 8.65e+02  -8.6 3.26e+06 -10.3 9.12e-01 2.33e-02f  1
 226r 6.3640472e+02 6.13e-01 7.96e+02  -8.6 7.62e+05  -9.9 1.00e+00 9.82e-02f  1
 227r 6.3562425e+02 6.13e-01 7.69e+02  -8.6 1.02e+07 -10.3 2.44e-01 7.70e-04f  1
 228r 6.3349865e+02 6.12e-01 7.85e+02  -8.6 9.89e+05  -9.9 1.00e+00 2.43e-02f  1
 229r 6.3352774e+02 6.12e-01 6.26e+02  -8.6 4.74e+05    -  1.00e+00 2.04e-03f  1
iter    objective    inf_pr   inf_du lg(mu)  ||d||  lg(rg) alpha_du alpha_pr  ls
 230r 6.3687864e+02 6.12e-01 5.14e+02  -8.6 4.74e+05    -  1.00e+00 1.79e-01f  1
 231r 6.3692666e+02 6.12e-01 1.54e+03  -8.6 1.54e+05  -7.7 1.62e-05 1.36e-01f  1
 232r 6.3701206e+02 6.12e-01 3.43e+03  -8.6 4.32e+04  -7.3 5.17e-02 3.51e-01f  1
In iteration 232, 1 Slack too small, adjusting variable bound
 233r 6.3701206e+02 6.12e-01 3.42e+03  -8.6 5.68e+00   0.6 1.74e-08 1.78e-03f  1
In iteration 233, 1 Slack too small, adjusting variable bound
 234r 6.3701206e+02 6.12e-01 3.42e+03  -8.6 2.67e+01   0.1 1.32e-03 1.41e-03f  1
In iteration 234, 1 Slack too small, adjusting variable bound
 235r 6.3701206e+02 6.12e-01 3.40e+03  -8.6 6.60e+00   0.5 2.32e-03 4.76e-03f  1
In iteration 235, 1 Slack too small, adjusting variable bound
 236r 6.3701206e+02 6.12e-01 3.37e+03  -8.6 3.36e+01   0.1 5.61e-04 9.33e-03f  1
In iteration 236, 1 Slack too small, adjusting variable bound
 237r 6.3701206e+02 6.12e-01 6.83e+03  -8.6 7.72e+00   0.5 3.92e-04 1.49e-02f  1
In iteration 237, 1 Slack too small, adjusting variable bound
 238r 6.3701206e+02 6.12e-01 6.76e+03  -8.6 4.45e+01   0.0 1.59e-03 1.04e-02f  1
In iteration 238, 1 Slack too small, adjusting variable bound
 239r 6.3701206e+02 6.12e-01 1.06e+04  -8.6 9.13e+00   0.4 4.09e-03 8.28e-02f  1
In iteration 239, 1 Slack too small, adjusting variable bound
iter    objective    inf_pr   inf_du lg(mu)  ||d||  lg(rg) alpha_du alpha_pr  ls
 240r 6.3701206e+02 6.12e-01 1.04e+04  -8.6 6.51e+01  -0.0 9.12e-03 1.80e-02f  1
In iteration 240, 1 Slack too small, adjusting variable bound
 241r 6.3701206e+02 6.12e-01 8.31e+03  -8.6 1.14e+01   0.4 1.11e-02 2.00e-01f  1
In iteration 241, 1 Slack too small, adjusting variable bound
 242r 6.3701206e+02 6.12e-01 8.03e+03  -8.6 1.21e+02  -0.1 4.48e-02 3.36e-02f  1
In iteration 242, 1 Slack too small, adjusting variable bound
 243r 6.3701206e+02 6.12e-01 7.44e+03  -8.6 1.62e+01   0.3 2.65e-03 7.39e-02f  1
In iteration 243, 1 Slack too small, adjusting variable bound
 244r 6.3701206e+02 6.12e-01 7.42e+03  -8.6 2.92e+02  -0.2 2.89e-02 2.06e-03f  1
 245r 6.3701206e+02 6.12e-01 7.42e+03  -8.6 5.36e+00  -0.6 0.00e+00 3.12e-13R 11
In iteration 245, 1 Slack too small, adjusting variable bound
 246r 6.3701206e+02 6.12e-01 7.42e+03  -8.6 5.52e+00  -1.1 3.00e-03 2.40e-12f  8
In iteration 246, 1 Slack too small, adjusting variable bound
 247r 6.3701206e+02 6.12e-01 7.40e+03  -8.6 2.83e-01  -1.6 2.55e-02 3.58e-03f  1
In iteration 247, 1 Slack too small, adjusting variable bound
 248r 6.3701206e+02 6.12e-01 6.90e+03  -8.6 1.53e-01  -2.1 7.43e-03 6.77e-02f  1
In iteration 248, 1 Slack too small, adjusting variable bound
 249r 6.3701206e+02 6.12e-01 6.52e+03  -8.6 3.88e-01  -2.5 1.17e-01 5.53e-02f  1
In iteration 249, 1 Slack too small, adjusting variable bound
iter    objective    inf_pr   inf_du lg(mu)  ||d||  lg(rg) alpha_du alpha_pr  ls
 250r 6.3701206e+02 6.12e-01 5.13e+03  -8.6 1.17e+00  -3.0 2.06e-01 2.13e-01f  1
In iteration 250, 1 Slack too small, adjusting variable bound
 251r 6.3701206e+02 6.12e-01 3.12e+03  -8.6 3.50e+00  -3.5 8.92e-02 3.92e-01f  1
In iteration 251, 1 Slack too small, adjusting variable bound
 252r 6.3701208e+02 6.12e-01 1.04e+03  -8.6 1.05e+01  -4.0 3.58e-01 6.67e-01f  1
In iteration 252, 1 Slack too small, adjusting variable bound
 253r 6.3701209e+02 6.12e-01 8.97e+02  -8.6 3.15e+01  -4.4 6.96e-01 1.35e-01f  1
In iteration 253, 1 Slack too small, adjusting variable bound
 254r 6.3701209e+02 6.12e-01 1.17e+03  -8.6 9.45e+01  -4.9 7.53e-01 5.38e-03f  1
In iteration 254, 1 Slack too small, adjusting variable bound
 255r 6.3701209e+02 6.12e-01 1.86e+03  -8.6 2.79e+02  -5.4 1.00e+00 5.72e-03f  1
In iteration 255, 1 Slack too small, adjusting variable bound
 256r 6.3701226e+02 6.12e-01 1.68e+03  -8.6 2.94e+02  -5.9 1.00e+00 1.10e-01f  1
In iteration 256, 1 Slack too small, adjusting variable bound
 257r 6.3701229e+02 6.12e-01 1.75e+03  -8.6 8.85e+02  -6.4 1.00e+00 8.16e-03f  1
In iteration 257, 1 Slack too small, adjusting variable bound
 258r 6.3701233e+02 6.12e-01 1.79e+03  -8.6 1.80e+03  -6.8 5.75e-01 5.04e-03f  1
In iteration 258, 1 Slack too small, adjusting variable bound
 259r 6.3701261e+02 6.12e-01 1.66e+03  -8.6 5.47e+03  -7.3 1.00e+00 6.68e-03f  1
In iteration 259, 1 Slack too small, adjusting variable bound
iter    objective    inf_pr   inf_du lg(mu)  ||d||  lg(rg) alpha_du alpha_pr  ls
 260r 6.3701372e+02 6.12e-01 1.62e+03  -8.6 1.71e+04  -7.8 1.00e+00 8.75e-03f  1
In iteration 260, 1 Slack too small, adjusting variable bound
 261r 6.3701623e+02 6.12e-01 1.61e+03  -8.6 5.83e+04  -8.3 1.00e+00 8.26e-03f  1
In iteration 261, 1 Slack too small, adjusting variable bound
 262r 6.3706475e+02 6.12e-01 1.59e+03  -8.6 3.00e+05  -8.7 1.00e+00 8.76e-03f  1
 263r 6.3720696e+02 6.12e-01 1.27e+03  -8.6 6.83e+04  -8.3 1.00e+00 2.02e-01f  1
 264r 6.3721553e+02 6.12e-01 1.23e+03  -8.6 4.58e+05  -8.8 1.00e+00 2.30e-02f  1
 265r 6.3820880e+02 6.12e-01 3.05e+02  -8.6 8.89e+04  -8.4 1.00e+00 7.54e-01f  1
 266r 6.3820880e+02 6.12e-01 3.05e+02  -8.6 3.62e+05    -  0.00e+00 3.03e-13R 15
 267r 6.3820880e+02 6.12e-01 8.73e+02  -8.6 3.62e+05    -  1.00e+00 1.95e-11f  9
 268r 6.4066837e+02 6.12e-01 6.21e+02  -8.6 3.62e+05    -  1.00e+00 1.37e-01f  1
 269r 6.4066844e+02 6.12e-01 6.46e+02  -8.6 2.45e+05    -  1.00e+00 6.39e-06f  1
iter    objective    inf_pr   inf_du lg(mu)  ||d||  lg(rg) alpha_du alpha_pr  ls
 270r 6.6452911e+02 8.67e+00 2.11e+01  -8.6 2.45e+05    -  1.00e+00 1.00e+00f  1
 271r 6.6420483e+02 7.39e+00 1.01e+03  -8.6 1.53e+05  -7.9 4.88e-02 1.48e-01f  1
In iteration 271, 1 Slack too small, adjusting variable bound
 272r 6.6420483e+02 7.39e+00 1.01e+03  -8.6 4.79e+03  -0.1 4.07e-10 3.03e-08h  1
In iteration 272, 2 Slacks too small, adjusting variable bounds
 273r 6.6420483e+02 7.39e+00 1.21e+03  -8.6 2.94e+03   0.3 1.72e-08 2.28e-08h  1
In iteration 273, 2 Slacks too small, adjusting variable bounds
 274r 6.6420483e+02 7.39e+00 1.23e+03  -8.6 2.26e+03  -0.1 1.31e-08 9.03e-08h  1
In iteration 274, 2 Slacks too small, adjusting variable bounds
 275r 6.6420483e+02 7.39e+00 1.83e+03  -8.6 1.77e+03   0.3 4.83e-08 9.21e-08h  1
In iteration 275, 2 Slacks too small, adjusting variable bounds
 276r 6.6420483e+02 7.39e+00 1.83e+03  -8.6 1.51e+03  -0.2 1.03e-07 1.93e-07h  1
In iteration 276, 2 Slacks too small, adjusting variable bounds
 277r 6.6420483e+02 7.39e+00 2.74e+03  -8.6 6.56e+02   0.2 9.37e-08 4.92e-07h  1
In iteration 277, 2 Slacks too small, adjusting variable bounds
 278r 6.6420483e+02 7.39e+00 4.28e+03  -8.6 6.29e+02  -0.2 2.35e-07 2.12e-06f  1
In iteration 278, 2 Slacks too small, adjusting variable bounds
 279r 6.6420483e+02 7.39e+00 4.28e+03  -8.6 3.42e+02   0.2 4.66e-07 2.29e-06h  1
In iteration 279, 2 Slacks too small, adjusting variable bounds
iter    objective    inf_pr   inf_du lg(mu)  ||d||  lg(rg) alpha_du alpha_pr  ls
 280r 6.6420483e+02 7.39e+00 4.28e+03  -8.6 2.63e+02  -0.3 2.48e-06 5.86e-06f  1
In iteration 280, 2 Slacks too small, adjusting variable bounds
 281r 6.6420483e+02 7.39e+00 4.10e+03  -8.6 1.69e+02   0.1 4.91e-07 7.32e-06h  1
In iteration 281, 2 Slacks too small, adjusting variable bounds
 282r 6.6420483e+02 7.39e+00 4.10e+03  -8.6 5.82e+02  -0.3 5.68e-06 3.44e-06f  1
In iteration 282, 2 Slacks too small, adjusting variable bounds
 283r 6.6420483e+02 7.38e+00 5.71e+03  -8.6 2.23e+01   0.1 1.80e-05 1.42e-03f  1
In iteration 283, 2 Slacks too small, adjusting variable bounds
 284r 6.6420483e+02 6.44e+00 4.98e+03  -8.6 7.38e+00   0.5 1.44e-03 1.27e-01f  1
In iteration 284, 1 Slack too small, adjusting variable bound
 285r 6.6420483e+02 5.45e+00 5.40e+03  -8.6 2.76e+01   0.0 2.88e-02 1.54e-01f  1
In iteration 285, 1 Slack too small, adjusting variable bound
 286r 6.6420483e+02 2.08e+00 2.40e+04  -8.6 8.07e+00   0.5 9.25e-08 6.19e-01f  1
In iteration 286, 1 Slack too small, adjusting variable bound
 287r 6.6420483e+02 2.05e+00 2.35e+04  -8.6 3.78e+01  -0.0 2.54e-02 1.29e-02f  1
 288r 6.6420483e+02 2.05e+00 2.35e+04  -8.6 1.84e+02  -0.5 0.00e+00 5.49e-13R  7
In iteration 288, 1 Slack too small, adjusting variable bound
 289r 6.6420483e+02 2.05e+00 2.35e+04  -8.6 1.14e+02  -0.1 2.17e-07 1.81e-11f  1
In iteration 289, 1 Slack too small, adjusting variable bound
iter    objective    inf_pr   inf_du lg(mu)  ||d||  lg(rg) alpha_du alpha_pr  ls
 290r 6.6420483e+02 2.02e+00 2.35e+04  -8.6 9.75e+02  -0.6 3.99e-03 1.53e-04f  7
In iteration 290, 1 Slack too small, adjusting variable bound
 291r 6.6420483e+02 1.96e+00 2.35e+04  -8.6 1.16e+02  -0.1 1.38e-03 5.46e-04f  6
In iteration 291, 1 Slack too small, adjusting variable bound
 292r 6.6420483e+02 1.96e+00 2.35e+04  -8.6 4.73e+03  -0.6 1.63e-03 1.68e-05f  8
In iteration 292, 1 Slack too small, adjusting variable bound
 293r 6.6420483e+02 1.90e+00 2.33e+04  -8.6 1.13e+02  -0.2 2.29e-02 5.40e-04f  6
In iteration 293, 1 Slack too small, adjusting variable bound
 294r 6.6420483e+02 6.09e-01 2.28e+04  -8.6 7.92e+01   0.2 3.71e-02 2.39e-02f  1
In iteration 294, 1 Slack too small, adjusting variable bound
 295r 6.6420483e+02 6.09e-01 2.19e+04  -8.6 3.86e+01  -0.2 5.12e-03 3.57e-02f  1
In iteration 295, 1 Slack too small, adjusting variable bound
 296r 6.6420483e+02 6.09e-01 2.10e+04  -8.6 1.06e+01   0.2 2.98e-02 4.30e-02f  1
In iteration 296, 1 Slack too small, adjusting variable bound
 297r 6.6420483e+02 6.09e-01 1.94e+04  -8.6 4.64e+01  -0.3 4.04e-02 7.64e-02f  1
In iteration 297, 1 Slack too small, adjusting variable bound
 298r 6.6420483e+02 6.09e-01 1.80e+04  -8.6 1.56e+01   0.1 1.80e-10 7.27e-02f  1
In iteration 298, 1 Slack too small, adjusting variable bound
 299r 6.6420483e+02 6.09e-01 1.79e+04  -8.6 1.29e-01   2.4 1.67e-09 3.89e-03f  1
In iteration 299, 1 Slack too small, adjusting variable bound
iter    objective    inf_pr   inf_du lg(mu)  ||d||  lg(rg) alpha_du alpha_pr  ls
 300r 6.6420483e+02 6.09e-01 1.51e+04  -8.6 7.57e-02   2.8 1.02e-01 1.58e-01f  1
In iteration 300, 1 Slack too small, adjusting variable bound
 301r 6.6420483e+02 6.09e-01 1.50e+04  -8.6 2.48e+00   2.3 2.49e-03 6.73e-03f  1
 302r 6.6420483e+02 6.09e-01 1.50e+04  -8.6 4.26e-02   2.8 0.00e+00 1.18e-14R 21
In iteration 302, 1 Slack too small, adjusting variable bound
 303r 6.6420483e+02 6.09e-01 1.27e+04  -8.6 1.07e-01   2.3 6.78e-03 1.53e-01f  1
In iteration 303, 1 Slack too small, adjusting variable bound
 304r 6.6420483e+02 6.09e-01 1.23e+04  -8.6 6.21e-02   2.7 6.16e-03 3.30e-02f  1
In iteration 304, 1 Slack too small, adjusting variable bound
 305r 6.6420483e+02 6.09e-01 1.09e+04  -8.6 1.20e-01   2.2 2.43e-01 1.08e-01f  1
 306r 6.6420483e+02 6.09e-01 9.36e+03  -8.6 2.75e-01   1.7 1.23e-01 1.45e-01f  1
 307r 6.6420483e+02 6.09e-01 8.70e+03  -8.6 8.32e-01   1.3 2.96e-02 7.02e-02f  1
 308r 6.6420483e+02 6.09e-01 5.50e+03  -8.6 2.54e+00   0.8 3.98e-01 3.68e-01f  1
 309r 6.6420483e+02 6.09e-01 5.50e+03  -8.6 6.46e+00   0.3 8.27e-02 1.06e-12h 10
iter    objective    inf_pr   inf_du lg(mu)  ||d||  lg(rg) alpha_du alpha_pr  ls
 310r 6.6420483e+02 6.09e-01 5.43e+03  -8.6 2.56e+01  -0.2 2.59e-01 1.24e-02f  1
 311r 6.6420483e+02 6.09e-01 5.43e+03  -8.6 2.28e+03  -0.6 5.10e-03 5.33e-04f  1
 312r 6.6420483e+02 6.09e-01 5.40e+03  -8.6 3.17e+01  -0.2 2.01e-09 5.59e-03f  1
 313r 6.6420483e+02 6.09e-01 5.40e+03  -8.6 1.81e-01   2.9 5.16e-04 3.19e-04f  1
 314r 6.6420483e+02 6.09e-01 5.22e+03  -8.6 7.65e-02   2.4 4.69e-04 3.19e-02f  1
 315r 6.6420483e+02 6.09e-01 5.22e+03  -8.6 1.54e-01   2.0 3.15e-02 3.51e-04f  1
 316r 6.6420483e+02 6.09e-01 4.90e+03  -8.6 3.99e-01   1.5 1.67e-03 6.12e-02f  1
 317r 6.6420483e+02 6.09e-01 4.54e+03  -8.6 1.22e+00   1.0 3.00e-01 7.43e-02f  1
 318r 6.6420483e+02 6.09e-01 4.45e+03  -8.6 3.82e+00   0.5 8.85e-02 1.91e-02f  1
 319r 6.6420483e+02 6.09e-01 4.39e+03  -8.6 1.33e+01   0.1 4.72e-02 1.27e-02f  1
iter    objective    inf_pr   inf_du lg(mu)  ||d||  lg(rg) alpha_du alpha_pr  ls
 320r 6.6420483e+02 6.09e-01 4.22e+03  -8.6 7.67e+01  -0.4 3.09e-02 3.91e-02f  1
 321r 6.6420483e+02 6.09e-01 3.62e+03  -8.6 1.61e+01   0.0 4.14e-01 1.42e-01f  1
 322r 6.6420483e+02 6.09e-01 3.31e+03  -8.6 9.75e+01  -0.5 8.88e-03 8.79e-02f  1
 323r 6.6420483e+02 6.09e-01 3.31e+03  -8.6 5.21e-02   2.7 0.00e+00 1.96e-13R 16
 324r 6.6420483e+02 6.09e-01 3.31e+03  -8.6 9.55e-02   2.2 2.36e-01 8.48e-09f  2
 325r 6.6420483e+02 6.09e-01 3.29e+03  -8.6 1.85e-01   1.7 1.00e+00 4.07e-03f  1
 326r 6.6420483e+02 6.09e-01 2.99e+03  -8.6 5.59e-01   1.2 7.11e-01 9.17e-02f  1
 327r 6.6420483e+02 6.09e-01 2.97e+03  -8.6 1.70e+00   0.8 2.18e-01 6.69e-03f  1
 328r 6.6420483e+02 6.09e-01 2.02e+03  -8.6 5.32e+00   0.3 6.20e-01 3.20e-01f  1
 329r 6.6420483e+02 6.09e-01 1.54e+03  -8.6 1.84e+01  -0.2 2.93e-08 2.36e-01f  1
iter    objective    inf_pr   inf_du lg(mu)  ||d||  lg(rg) alpha_du alpha_pr  ls
 330r 6.6420483e+02 6.09e-01 1.35e+03  -8.6 7.98e+01  -0.7 1.89e-01 1.29e-01f  1
 331r 6.6420483e+02 6.09e-01 1.35e+03  -8.6 1.04e+02  -1.2 0.00e+00 3.99e-15R 17
 332r 6.6420483e+02 6.09e-01 1.35e+03  -8.6 1.95e+02  -1.6 1.94e-09 2.20e-12f  7
 333r 6.6420483e+02 6.09e-01 1.91e+03  -8.6 3.25e+01  -2.1 7.46e-01 4.16e-10f  2
 334r 6.6420482e+02 6.09e-01 3.74e+02  -8.6 4.37e-01  -2.6 1.88e-02 7.22e-01f  1
 335r 6.6420482e+02 6.09e-01 3.74e+02  -8.6 4.30e+04  -3.1 3.64e-12 1.51e-06f  1
 336r 6.6420476e+02 6.09e-01 1.62e+02  -8.6 3.20e+00  -3.5 1.00e+00 8.16e-01f  1
 337r 6.6420453e+02 6.09e-01 1.39e-01  -8.6 9.60e+00  -4.0 1.00e+00 9.99e-01f  1
 338r 6.6420385e+02 6.09e-01 9.30e-04  -8.6 2.88e+01  -4.5 1.00e+00 1.00e+00f  1
 339r 6.6420181e+02 6.09e-01 9.30e-04  -8.6 8.65e+01  -5.0 1.00e+00 1.00e+00f  1
iter    objective    inf_pr   inf_du lg(mu)  ||d||  lg(rg) alpha_du alpha_pr  ls
 340r 6.6420087e+02 6.09e-01 3.90e-03  -8.6 2.60e+02  -5.4 1.00e+00 1.54e-01f  1
 341r 6.6419726e+02 6.09e-01 7.93e+02  -8.6 7.83e+02  -5.9 1.00e+00 1.99e-01f  1
 342r 6.6417698e+02 6.09e-01 6.48e+02  -8.6 1.22e+03  -6.4 5.39e-01 3.75e-01f  1
 343r 6.6416788e+02 6.09e-01 6.02e+02  -8.6 3.55e+03  -6.9 1.41e-01 5.59e-02f  1
 344r 6.6416451e+02 6.09e-01 1.39e+03  -8.6 7.45e+03  -7.4 1.00e+00 6.78e-03f  1
 345r 6.6414004e+02 6.09e-01 1.54e+03  -8.6 2.32e+04  -7.8 1.00e+00 1.61e-02f  1
 346r 6.6412533e+02 6.09e-01 1.23e+03  -8.6 7.87e+04  -8.3 1.00e+00 3.06e-03f  1
 347r 6.6406296e+02 6.09e-01 1.20e+03  -8.6 1.27e+05  -8.8 1.00e+00 3.97e-03f  1
 348r 6.6387913e+02 6.09e-01 1.15e+03  -8.6 5.56e+05  -9.3 9.46e-02 3.19e-03f  1
 349r 6.6306892e+02 6.09e-01 1.26e+03  -8.6 1.34e+05  -8.8 1.00e+00 4.59e-02f  1
iter    objective    inf_pr   inf_du lg(mu)  ||d||  lg(rg) alpha_du alpha_pr  ls
 350r 6.6248736e+02 6.09e-01 1.23e+03  -8.6 7.46e+05  -9.3 7.82e-01 9.00e-03f  1
 351r 6.6180561e+02 6.09e-01 1.14e+03  -8.6 1.61e+05  -8.9 1.00e+00 6.03e-02f  1
 352r 6.6142942e+02 6.09e-01 1.08e+03  -8.6 1.18e+06  -9.4 1.00e+00 1.30e-02f  1
 353r 6.6118431e+02 6.09e-01 1.06e+03  -8.6 2.04e+05  -8.9 1.00e+00 4.78e-02f  1
 354r 6.6027276e+02 6.09e-01 1.03e+03  -8.6 3.16e+06  -9.4 1.00e+00 1.96e-02f  1
 355r 6.6027149e+02 6.09e-01 9.91e+02  -8.6 1.33e+06  -9.9 1.00e+00 1.37e-05f  1
 356r 6.4903638e+02 6.09e-01 2.81e+02  -8.6 3.11e+05  -9.5 1.00e+00 7.21e-01f  1
 357r 6.4903638e+02 6.09e-01 8.79e+02  -8.6 1.03e+07  -9.9 1.00e+00 4.09e-09h  1
 358r 6.4285838e+02 6.09e-01 5.72e+02  -8.6 4.88e+05  -9.5 1.00e+00 3.73e-01f  1
 359r 6.4285838e+02 6.09e-01 5.72e+02  -8.6 5.53e+05 -10.0 0.00e+00 1.70e-12R 16
iter    objective    inf_pr   inf_du lg(mu)  ||d||  lg(rg) alpha_du alpha_pr  ls
 360r 6.4285837e+02 6.09e-01 8.32e+02  -8.6 2.65e+06 -10.5 1.00e+00 5.65e-08f  1
 361r 6.1953501e+02 6.09e-01 2.37e+02  -8.6 6.37e+05 -10.0 1.00e+00 7.14e-01f  1
 362r 6.1553455e+02 6.09e-01 1.47e+02  -8.6 3.08e+05  -9.6 1.00e+00 4.10e-01f  1
 363r 6.1553455e+02 6.09e-01 1.47e+02  -8.6 2.67e+05    -  0.00e+00 8.83e-13R 12
 364r 6.1553455e+02 6.09e-01 9.36e+02  -8.6 2.70e+05    -  1.00e+00 3.52e-12f 10
 365r 6.1042803e+02 6.10e-01 5.90e+01  -8.6 1.17e+05    -  1.00e+00 9.26e-01F  1
 366r 6.0912979e+02 6.10e-01 1.01e-01  -8.6 1.27e+04    -  1.00e+00 9.95e-01f  1
 367r 6.0912186e+02 6.10e-01 9.43e-07  -8.6 8.12e+01    -  1.00e+00 1.00e+00h  1

Number of Iterations....: 367

                                   (scaled)                 (unscaled)
Objective...............:   6.0912186285118230e+02    6.0912186285118230e+02
Dual infeasibility......:   1.1780616619897882e-04    1.1780616619897882e-04
Constraint violation....:   6.1023982121553622e-01    6.1023982121553622e-01
Complementarity.........:   3.8773466264839221e-09    3.8773466264839221e-09
Overall NLP error.......:   6.1023982121553622e-01    6.1023982121553622e-01


Number of objective function evaluations             = 798
Number of objective gradient evaluations             = 33
Number of equality constraint evaluations            = 810
Number of inequality constraint evaluations          = 0
Number of equality constraint Jacobian evaluations   = 388
Number of inequality constraint Jacobian evaluations = 0
Number of Lagrangian Hessian evaluations             = 368
Total CPU secs in IPOPT (w/o function evaluations)   =      0.500
Total CPU secs in NLP function evaluations           =      9.289

EXIT: Converged to a point of local infeasibility. Problem may be infeasible.
